param N := 14;
#param A := 35;
param Gamma := 50;

# set attributes := i j ca da ra;

set ARCS :=
1	2
1	3
1	4
2	5
2	6
3	5
3	6
3	7
4	6
4	7
5	6
5	8
5	9
6	5
6	8
6	9
6	10
6	7
7	6
7	9
7	10
8	9
8	11
8	12
9	8
9	11
9	12
9	13
9	10
10	9
10	12
10	13
11	14
12	14
13	14;

param:
		i	j	ca	da	ra	:=
1	2	1	2	0	0	51
1	3	1	3	0	0	51
1	4	1	4	0	0	51
2	5	2	5	2	7	3	
2	6	2	6	6	9	0	
3	5	3	5	8	6	2	
3	6	3	6	4	5	2	
3	7	3	7	4	9	1	
4	6	4	6	6	9	2	
4	7	4	7	1	8	2	
5	6	5	6	8	3	5	
5	8	5	8	1	5	2	
5	9	5	9	10	3	4	
6	5	6	5	0	5	4	
6	8	6	8	0	4	2	
6	9	6	9	8	8	4	
6	10	6	10	8	1	3	
6	7	6	7	7	10	2	
7	6	7	6	4	1	2	
7	9	7	9	6	7	4	
7	10	7	10	1	6	3	
8	9	8	9	7	4	1	
8	11	8	11	9	4	3	
8	12	8	12	7	2	4	
9	8	9	8	5	4	2	
9	11	9	11	5	2	4	
9	12	9	12	10	7	5	
9	13	9	13	9	8	3	
9	10	9	10	5	4	4	
10	9	10	9	7	1	0	
10	12	10	12	7	2	4	
10	13	10	13	3	5	0	
11	14	11	14	0	0	51
12	14	12	14	0	0	51
13	14	13	14	0	0	51	;

